
Gurobi 10.0.1 (linux64) logging started Sun Nov 26 15:52:54 2023

Set parameter LogFile to value "ArtificialInstance/ExperimentV2/S2T4K3/AdRo/gurobiSpRo48.txt"
Gurobi Optimizer version 10.0.1 build v10.0.1rc0 (linux64)

CPU model: AMD EPYC 7H12 64-Core Processor, instruction set [SSE2|AVX|AVX2]
Thread count: 128 physical cores, 128 logical processors, using up to 32 threads

Academic license 656792 - for non-commercial use only - registered to b.___@student.vu.nl
Optimize a model with 13022 rows, 12259 columns and 47620 nonzeros
Model fingerprint: 0x916e4253
Variable types: 1 continuous, 12258 integer (12258 binary)
Coefficient statistics:
  Matrix range     [1e+00, 4e+01]
  Objective range  [1e+00, 2e+01]
  Bounds range     [1e+00, 1e+00]
  RHS range        [1e+00, 1e+00]
Presolve removed 6656 rows and 6317 columns
Presolve time: 0.14s
Presolved: 6366 rows, 5942 columns, 23164 nonzeros
Variable types: 1 continuous, 5941 integer (5941 binary)

Root relaxation: objective 8.226508e+01, 1894 iterations, 0.08 seconds (0.06 work units)

    Nodes    |    Current Node    |     Objective Bounds      |     Work
 Expl Unexpl |  Obj  Depth IntInf | Incumbent    BestBd   Gap | It/Node Time

H    0     0                      82.2650809   74.81130  9.06%     -    0s
     0     0          -    0        82.26508   82.26508  0.00%     -    0s

Explored 1 nodes (2721 simplex iterations) in 0.30 seconds (0.21 work units)
Thread count was 32 (of 128 available processors)

Solution count 1: 82.2651 

Optimal solution found (tolerance 1.00e-04)
Best objective 8.226508093110e+01, best bound 8.226508093110e+01, gap 0.0000%
